\ Model navie_copy
\ LP format - for model browsing. Use MPS format to capture full model detail.
\ Signature: 0x74aef593b6f09da1
Maximize
 
Subject To
 constrain_3_2_1_vehicle_3: var_vehicle[3,0] = 0
 constrian_5_0_3: var_vehicle[3,0] = 1
Bounds
Binaries
 var_vehicle[3,0]
End
